40
    82    36    18    50    34    69    88    66    19    33    42     4    85    12    82    13    12    44    88    45     4    20    17    56    95    85     5     4    49    36    64    50    55    23    89    58    32    50    47    97
     7     8     5     1     7     4     6     4     4    10     4     2     9     4     7     2     9     6     3    10     4     5     5     2     8     5    10     8     6     5     7     6    10     1     9     6     2     6     4     8
   674   456  1540  1236  1816  2008   878  1173   422  1376   244  1143   883   602  1167   285  1934   783   241   823   194  1543   568  1513   211  1447  1829  1291  1282  1186   572  2010  1924   275   722   947  1558   241   867   963
